(set-logic HORN)
(declare-fun inv ((_ BitVec 64) ) Bool)
(assert (forall ((x (_ BitVec 64))) 
       (=> ( = x (_ bv0 64) ) (inv x))))
(assert (forall ((x (_ BitVec 64)) (x! (_ BitVec 64))) 
       (=> (and (inv x) ( and ( bvslt x (_ bv100 64) ) ( = x! ( bvadd x (_ bv1 64) ) ) )) (inv x!))))
(assert (forall ((x (_ BitVec 64))) 
       (=> (inv x) ( or ( not ( bvsge x (_ bv100 64) ) ) ( = x (_ bv100 64) ) ))))
(check-sat)
